RT is False
Default write of storage_offers_DA.csv just to have a file (but constraint should be inactive)
Reading model...
...model read.
creating competitive generators file...
...competitive generators recorded.
Loading data...
.. day-ahead data with real-time VRE data read.
Compiling instance...
...instance created.
Creating Offer Mitigation (model will solve as dispatch if TRUE)...
NOTE: storage offers will not be mitigated
...storage offer mitigation file created
Converting model to MPEC...
...converted
NOTE: initial MIP solve with only storage competitive to get feasible solution
Solving...

Welcome to IBM(R) ILOG(R) CPLEX(R) Interactive Optimizer 12.9.0.0
  with Simplex, Mixed Integer & Barrier Optimizers
5725-A06 5725-A29 5724-Y48 5724-Y49 5724-Y54 5724-Y55 5655-Y21
Copyright IBM Corp. 1988, 2019.  All Rights Reserved.

Type 'help' for a list of available commands.
Type 'help' followed by a command name for more
information on commands.

CPLEX> Logfile 'cplex.log' closed.
Logfile 'C:\Users\llavin\Desktop\test826\logs\tmptuz4gq_i.cplex.log' open.
CPLEX> New value for parallel optimization mode: -1
CPLEX> New value for emphasis for MIP optimization: 1
CPLEX> New value for mixed integer optimality gap tolerance: 0.01
CPLEX> New value for integrality tolerance: 1e-12
CPLEX> New value for deterministic time limit in ticks: 75000
CPLEX> Problem 'C:\Users\llavin\Desktop\test826\logs\tmpku9of120.pyomo.lp' read.
Read time = 0.22 sec. (13.92 ticks)
CPLEX> Problem name         : C:\Users\llavin\Desktop\test826\logs\tmpku9of120.pyomo.lp
Objective sense      : Maximize
Variables            :   53809  [Nneg: 1,  Box: 22004,  Free: 4464,
                                 Binary: 27340]
Objective nonzeros   :    8957
Linear constraints   :  123253  [Less: 41346,  Greater: 59096,  Equal: 22811]
  Nonzeros           :  293266
  RHS nonzeros       :   67468

Variables            : Min LB: -5000.000        Max UB: 1000000.       
Objective nonzeros   : Min   : 0.6916667        Max   : 829.5083       
Linear constraints   :
  Nonzeros           : Min   : 0.6916667        Max   : 1000000.       
  RHS nonzeros       : Min   : 0.6916667        Max   : 1000000.       
CPLEX> CPXPARAM_Parallel                                -1
CPXPARAM_Emphasis_MIP                            1
CPXPARAM_DetTimeLimit                            75000
CPXPARAM_MIP_Tolerances_MIPGap                   0.01
CPXPARAM_MIP_Tolerances_Integrality              9.9999999999999998e-13
Tried aggregator 4 times.
MIP Presolve eliminated 88830 rows and 19071 columns.
MIP Presolve added 3379 rows and 0 columns.
MIP Presolve modified 24852 coefficients.
Aggregator did 13020 substitutions.
Reduced MIP has 24782 rows, 21147 columns, and 70736 nonzeros.
Reduced MIP has 8352 binaries, 0 generals, 0 SOSs, and 0 indicators.
Presolve time = 0.33 sec. (193.90 ticks)
Probing fixed 415 vars, tightened 4145 bounds.
Probing time = 0.08 sec. (18.78 ticks)
Tried aggregator 2 times.
MIP Presolve eliminated 933 rows and 832 columns.
MIP Presolve modified 3008 coefficients.
Aggregator did 24 substitutions.
Reduced MIP has 23825 rows, 20291 columns, and 67956 nonzeros.
Reduced MIP has 7937 binaries, 0 generals, 0 SOSs, and 0 indicators.
Presolve time = 0.13 sec. (88.75 ticks)
Probing fixed 0 vars, tightened 323 bounds.
Probing time = 0.14 sec. (23.85 ticks)
Clique table members: 44434.
MIP emphasis: integer feasibility.
MIP search method: dynamic search.
Parallel mode: opportunistic, using up to 32 threads.
Root relaxation solution time = 0.41 sec. (608.54 ticks)

        Nodes                                         Cuts/
   Node  Left     Objective  IInf  Best Integer    Best Bound    ItCnt     Gap

      0     0     5043.8042    98                   5043.8042     5140         
*     0+    0                         3884.5225     5043.8042            29.84%
      0     0     5043.8042     4     3884.5225   Flowcuts: 8     5146   29.84%
      0     0     5043.8042     4     3884.5225       Cuts: 5     5151   29.84%
*     0+    0                         4898.3137     5043.8042             2.97%

Repeating presolve.
Tried aggregator 4 times.
MIP Presolve eliminated 11253 rows and 8419 columns.
MIP Presolve modified 19335 coefficients.
Aggregator did 181 substitutions.
Reduced MIP has 12391 rows, 11691 columns, and 37788 nonzeros.
Reduced MIP has 4252 binaries, 0 generals, 0 SOSs, and 0 indicators.
Presolve time = 0.13 sec. (70.96 ticks)
Probing fixed 585 vars, tightened 28935 bounds.
Probing time = 0.14 sec. (72.71 ticks)
Cover probing fixed 18 vars, tightened 2240 bounds.
Tried aggregator 4 times.
MIP Presolve eliminated 6409 rows and 6312 columns.
MIP Presolve modified 2114 coefficients.
Aggregator did 120 substitutions.
Reduced MIP has 5862 rows, 5259 columns, and 19877 nonzeros.
Reduced MIP has 1865 binaries, 0 generals, 0 SOSs, and 0 indicators.
Presolve time = 0.05 sec. (30.76 ticks)
Probing fixed 35 vars, tightened 2980 bounds.
Probing time = 0.05 sec. (19.66 ticks)
Tried aggregator 2 times.
MIP Presolve eliminated 78 rows and 75 columns.
MIP Presolve modified 910 coefficients.
Aggregator did 6 substitutions.
Reduced MIP has 5778 rows, 5178 columns, and 19606 nonzeros.
Reduced MIP has 1830 binaries, 0 generals, 0 SOSs, and 0 indicators.
Presolve time = 0.03 sec. (16.02 ticks)
Represolve time = 0.47 sec. (242.19 ticks)
Probing fixed 8 vars, tightened 1826 bounds.
Probing time = 0.03 sec. (7.35 ticks)
Clique table members: 2501.
MIP emphasis: integer feasibility.
MIP search method: dynamic search.
Parallel mode: opportunistic, using up to 32 threads.
Root relaxation solution time = 0.11 sec. (102.52 ticks)

        Nodes                                         Cuts/
   Node  Left     Objective  IInf  Best Integer    Best Bound    ItCnt     Gap

*     0+    0                         4898.3137     5043.8042             2.97%
      0     0     5043.8042    16     4898.3137     5043.8042     6832    2.97%
      0     0        cutoff           4898.3137                   6846     --- 
Elapsed time = 3.84 sec. (2593.37 ticks, tree = 0.01 MB, solutions = 2)

Flow cuts applied:  3
Mixed integer rounding cuts applied:  1
Lift and project cuts applied:  2

Root node processing (before b&c):
  Real time             =    3.84 sec. (2594.65 ticks)
Parallel b&c, 32 threads:
  Real time             =    0.00 sec. (0.00 ticks)
  Sync time (average)   =    0.00 sec.
  Wait time (average)   =    0.00 sec.
                          ------------
Total (root+branch&cut) =    3.84 sec. (2594.65 ticks)

Solution pool: 2 solutions saved.

MIP - Integer optimal solution:  Objective =  4.8983136674e+03
Solution time =    3.88 sec.  Iterations = 6846  Nodes = 0
Deterministic time = 2594.80 ticks  (669.63 ticks/sec)

CPLEX> Incumbent solution written to file 'C:\Users\llavin\Desktop\test826\logs\tmp6dgg4p2m.cplex.sol'.
CPLEX> NOTE: no warmstart specified for MIP iteration, default behavior is true
NOTE: resolving with all competitive generators using storage-only solution to warmstart
Solving...

Welcome to IBM(R) ILOG(R) CPLEX(R) Interactive Optimizer 12.9.0.0
  with Simplex, Mixed Integer & Barrier Optimizers
5725-A06 5725-A29 5724-Y48 5724-Y49 5724-Y54 5724-Y55 5655-Y21
Copyright IBM Corp. 1988, 2019.  All Rights Reserved.

Type 'help' for a list of available commands.
Type 'help' followed by a command name for more
information on commands.

CPLEX> Logfile 'cplex.log' closed.
Logfile 'C:\Users\llavin\Desktop\test826\logs\tmp8jxl8obm.cplex.log' open.
CPLEX> New value for parallel optimization mode: -1
CPLEX> New value for emphasis for MIP optimization: 1
CPLEX> New value for mixed integer optimality gap tolerance: 0.01
CPLEX> New value for integrality tolerance: 1e-12
CPLEX> New value for deterministic time limit in ticks: 75000
CPLEX> Problem 'C:\Users\llavin\Desktop\test826\logs\tmpi_urvcez.pyomo.lp' read.
Read time = 0.23 sec. (13.94 ticks)
CPLEX> MIP start file 'C:\Users\llavin\Desktop\test826\logs\tmpxrbwaemf.cplex.mst' read.
CPLEX> Problem name         : C:\Users\llavin\Desktop\test826\logs\tmpi_urvcez.pyomo.lp
Objective sense      : Maximize
Variables            :   54529  [Nneg: 1,  Box: 22724,  Free: 4464,
                                 Binary: 27340]
Objective nonzeros   :    9653
Linear constraints   :  123253  [Less: 41346,  Greater: 59096,  Equal: 22811]
  Nonzeros           :  293266
  RHS nonzeros       :   67468

Variables            : Min LB: -5000.000        Max UB: 1000000.       
Objective nonzeros   : Min   : 0.6916667        Max   : 787.6750       
Linear constraints   :
  Nonzeros           : Min   : 0.6916667        Max   : 1000000.       
  RHS nonzeros       : Min   : 0.6916667        Max   : 1000000.       
CPLEX> CPXPARAM_Parallel                                -1
CPXPARAM_Emphasis_MIP                            1
CPXPARAM_DetTimeLimit                            75000
CPXPARAM_MIP_Tolerances_MIPGap                   0.01
CPXPARAM_MIP_Tolerances_Integrality              9.9999999999999998e-13
Warning:  No solution found from 1 MIP starts.
Retaining values of one MIP start for possible repair.
Tried aggregator 4 times.
MIP Presolve eliminated 88830 rows and 19791 columns.
MIP Presolve added 3379 rows and 0 columns.
MIP Presolve modified 24852 coefficients.
Aggregator did 13020 substitutions.
Reduced MIP has 24782 rows, 21147 columns, and 70736 nonzeros.
Reduced MIP has 8352 binaries, 0 generals, 0 SOSs, and 0 indicators.
Presolve time = 0.33 sec. (194.31 ticks)
Probing fixed 415 vars, tightened 4145 bounds.
Probing time = 0.06 sec. (18.78 ticks)
Tried aggregator 2 times.
MIP Presolve eliminated 933 rows and 832 columns.
MIP Presolve modified 3008 coefficients.
Aggregator did 24 substitutions.
Reduced MIP has 23825 rows, 20291 columns, and 67956 nonzeros.
Reduced MIP has 7937 binaries, 0 generals, 0 SOSs, and 0 indicators.
Presolve time = 0.11 sec. (88.75 ticks)
Probing fixed 0 vars, tightened 323 bounds.
Probing time = 0.14 sec. (23.85 ticks)
Clique table members: 44434.
MIP emphasis: integer feasibility.
MIP search method: dynamic search.
Parallel mode: opportunistic, using up to 32 threads.
Root relaxation solution time = 0.44 sec. (629.43 ticks)

        Nodes                                         Cuts/
   Node  Left     Objective  IInf  Best Integer    Best Bound    ItCnt     Gap

      0     0   108235.2092   190                 108235.2092     5220         
      0     0   102373.6015   130                   Cuts: 126     5454         
      0     0   101800.4844   119                    Cuts: 38     5480         
      0     0   101785.7127   121                     Cuts: 4     5486         
Repair heuristic found nothing.
      0     7    86164.3166   100                     Cuts: 3     5536         
Elapsed time = 4.11 sec. (1762.35 ticks, tree = 0.02 MB, solutions = 0)
    684   349    73821.2652    57                  88917.3556     8345         
   1159   729    22924.9702    20                  88917.3556    14956         
   1874  1236    25412.3433    17                  88917.3556    20350         
*  2060+  887                        34545.5619    88917.3556           157.39%
   2722   843    45159.8161    38    34545.5619    88338.6297    25679  155.72%
   3497   959    41250.6739    38    34545.5619    88082.2181    33660  154.97%
*  3651+ 1005                        34577.5641    88082.2181           154.74%
*  3760  1243      integral     0    34577.5641    87853.5928    36874  154.08%
   4549  1756    39276.9473    43    34577.5641    83843.9051    51193  142.48%
   5276  1660        cutoff          34612.1234    79927.9116    48258  130.92%
*  7861  1993      integral     0    35287.6210    59595.2387    87417   68.88%
   8198  1969        cutoff          35287.6210    59595.2387    94659   68.88%
Elapsed time = 19.64 sec. (4528.33 ticks, tree = 10.75 MB, solutions = 7)
*  8707+ 1176                        35287.6210    53178.0460            50.70%
*  8707+  784                        35287.6210    53099.1494            50.48%
   8707   790        cutoff          35287.6210    51937.5324   113203   47.18%

Cover cuts applied:  4
Implied bound cuts applied:  7
Flow cuts applied:  45
Mixed integer rounding cuts applied:  16
Gomory fractional cuts applied:  2

Root node processing (before b&c):
  Real time             =    2.62 sec. (1735.78 ticks)
Parallel b&c, 32 threads:
  Real time             =   23.92 sec. (5976.34 ticks)
  Sync time (average)   =    2.13 sec.
  Wait time (average)   =    0.24 sec.
                          ------------
Total (root+branch&cut) =   26.55 sec. (7712.12 ticks)

Solution pool: 9 solutions saved.

MIP - Integer optimal, tolerance (0.01/1e-06):  Objective =  3.5287621002e+04
Current MIP best bound =  3.5621680879e+04 (gap = 334.06, 0.95%)
Solution time =   26.56 sec.  Iterations = 116259  Nodes = 9005 (17)
Deterministic time = 7712.28 ticks  (290.35 ticks/sec)

CPLEX> Incumbent solution written to file 'C:\Users\llavin\Desktop\test826\logs\tmpev1wmjka.cplex.sol'.
CPLEX> Exporting results... 
